MINIMIZE
+ 6 z151
+ 8 z152
+ 2 z153
+ 3 z154
+ 8 z155
+ 1 z156
+ 2 z157
+ 8 z158
+ 10 z159
+ 4 z160
+ 4 z161
+ 10 z162
+ 4 z163
+ 7 z164
+ 2 z165
+ 2 z166
+ 5 z167
+ 4 z168
+ 4 z169
+ 10 z170
+ 10 z171
+ 5 z172
+ 8 z173
+ 10 z174
+ 4 z175
+ 8 z176
+ 1 z177
+ 8 z178
+ 10 z179
+ 4 z180
+ 5 z181
+ 6 z182
+ 1 z183
+ 6 z184
+ 9 z185
+ 8 z186
+ 7 z187
+ 10 z188
+ 6 z189
+ 7 z190
+ 3 z191
+ 9 z192
+ 6 z193
+ 6 z194
+ 6 z195
+ 7 z196
+ 8 z197
+ 1 z198
+ 1 z199
+ 1 z200
+ 10 z201
+ 1 z202
+ 5 z203
+ 7 z204
+ 10 z205
+ 9 z206
+ 4 z207
+ 1 z208
+ 7 z209
+ 3 z210
+ 4 z211
+ 2 z212
+ 9 z213
+ 4 z214
+ 7 z215
+ 7 z216
+ 2 z217
+ 4 z218
+ 6 z219
+ 7 z220
+ 10 z221
+ 8 z222
+ 6 z223
+ 5 z224
+ 4 z225
+ 1 z226
+ 2 z227
+ 2 z228
+ 1 z229
+ 2 z230
+ 2 z231
+ 1 z232
+ 3 z233
+ 7 z234
+ 7 z235
+ 2 z236
+ 6 z237
+ 1 z238
+ 2 z239
+ 3 z240
+ 4 z241
+ 6 z242
+ 4 z243
+ 2 z244
+ 9 z245
+ 1 z246
+ 8 z247
+ 1 z248
+ 4 z249
+ 3 z250
+ 7 z251
+ 4 z252
+ 1 z253
+ 3 z254
+ 9 z255
+ 4 z256
+ 4 z257
+ 10 z258
+ 5 z259
+ 4 z260
+ 2 z261
+ 7 z262
+ 4 z263
+ 4 z264
+ 4 z265
+ 1 z266
+ 6 z267
+ 10 z268
+ 1 z269
+ 7 z270
+ 2 z271
+ 4 z272
+ 3 z273
+ 5 z274
+ 5 z275
+ 1 z276
+ 5 z277
+ 3 z278
+ 1 z279
+ 9 z280
+ 5 z281
+ 8 z282
+ 2 z283
+ 5 z284
+ 10 z285
+ 1 z286
+ 9 z287
+ 3 z288
+ 10 z289
+ 4 z290
+ 7 z291
+ 2 z292
+ 10 z293
+ 1 z294
+ 6 z295
+ 4 z296
+ 2 z297
+ 1 z298
+ 4 z299
+ 2 z300
+ 8 z301
+ 5 z302
+ 6 z303
+ 10 z304
+ 10 z305
+ 1 z306
+ 1 z307
+ 5 z308
+ 3 z309
+ 1 z310
+ 3 z311
+ 8 z312
+ 9 z313
+ 5 z314
+ 2 z315
+ 9 z316
+ 5 z317
+ 1 z318
+ 2 z319
+ 5 z320
+ 4 z321
+ 8 z322
+ 6 z323
+ 4 z324
+ 9 z325
+ 2 z326
+ 8 z327
+ 1 z328
+ 2 z329
+ 1 z330
+ 3 z331
+ 9 z332
+ 6 z333
+ 8 z334
+ 9 z335
+ 5 z336
+ 9 z337
+ 9 z338
+ 9 z339
+ 2 z340
+ 10 z341
+ 2 z342
+ 9 z343
+ 8 z344
+ 7 z345
+ 1 z346
+ 6 z347
+ 1 z348
+ 2 z349
+ 7 z350
+ 6 z351
+ 5 z352
+ 5 z353
+ 2 z354
+ 8 z355
+ 4 z356
+ 3 z357
+ 6 z358
+ 4 z359
+ 5 z360
+ 6 z361
+ 6 z362
+ 3 z363
+ 1 z364
+ 4 z365
+ 2 z366
+ 6 z367
+ 3 z368
+ 10 z369
+ 5 z370
+ 4 z371
+ 9 z372
+ 6 z373
+ 3 z374
+ 7 z375
+ 2 z376
+ 3 z377
+ 3 z378
+ 3 z379
+ 4 z380
+ 10 z381
+ 9 z382
+ 9 z383
+ 5 z384
+ 10 z385
+ 7 z386
+ 8 z387
+ 3 z388
+ 2 z389
+ 2 z390
+ 7 z391
+ 8 z392
+ 8 z393
+ 10 z394
+ 9 z395
+ 1 z396
+ 1 z397
+ 4 z398
+ 3 z399
+ 10 z400
+ 8 z401
+ 7 z402
+ 9 z403
+ 4 z404
+ 9 z405
+ 5 z406
+ 5 z407
+ 1 z408
+ 7 z409
+ 8 z410
+ 5 z411
+ 7 z412
+ 6 z413
+ 3 z414
+ 1 z415
+ 5 z416
+ 10 z417
+ 8 z418
+ 7 z419
+ 1 z420
+ 10 z421
+ 4 z422
+ 8 z423
+ 7 z424
+ 3 z425
+ 7 z426
+ 8 z427
+ 3 z428
+ 10 z429
+ 10 z430
+ 3 z431
+ 8 z432
+ 7 z433
+ 1 z434
+ 1 z435
+ 5 z436
+ 6 z437
+ 5 z438
+ 6 z439
+ 3 z440
+ 3 z441
+ 10 z442
+ 9 z443
+ 8 z444
+ 3 z445
+ 9 z446
+ 3 z447
+ 3 z448
+ 7 z449
+ 10 z450
+ 3 z451
+ 6 z452
+ 3 z453
+ 1 z454
+ 3 z455
+ 5 z456
+ 7 z457
+ 10 z458
+ 7 z459
+ 7 z460
+ 10 z461
+ 9 z462
+ 4 z463
+ 6 z464
+ 10 z465
+ 4 z466
+ 10 z467
+ 5 z468
+ 9 z469
+ 5 z470
+ 7 z471
+ 1 z472
+ 5 z473
+ 5 z474
+ 8 z475
+ 8 z476
+ 4 z477
+ 1 z478
+ 10 z479
+ 10 z480
+ 10 z481
+ 3 z482
+ 6 z483
+ 2 z484
+ 4 z485
+ 8 z486
+ 6 z487
+ 1 z488
+ 7 z489
+ 2 z490
+ 7 z491
+ 7 z492
+ 1 z493
+ 1 z494
+ 2 z495
+ 10 z496
+ 4 z497
+ 2 z498
+ 5 z499
+ 3 z500
+ 7 z501
+ 2 z502
+ 4 z503
+ 1 z504
+ 6 z505
+ 2 z506
+ 9 z507
+ 10 z508
+ 2 z509
+ 9 z510
+ 9 z511
+ 1 z512
+ 2 z513
+ 5 z514
+ 2 z515
+ 5 z516
+ 2 z517
+ 7 z518
+ 5 z519
+ 9 z520
+ 9 z521
+ 2 z522
+ 5 z523
+ 10 z524
+ 2 z525
+ 7 z526
+ 10 z527
+ 6 z528
+ 8 z529
+ 5 z530
+ 8 z531
+ 5 z532
+ 6 z533
+ 1 z534
+ 5 z535
+ 2 z536
+ 2 z537
+ 4 z538
+ 1 z539
+ 4 z540
+ 3 z541
+ 9 z542
+ 4 z543
+ 4 z544
+ 4 z545
+ 5 z546
+ 8 z547
+ 5 z548
+ 2 z549
+ 3 z550
+ 4 z551
+ 1 z552
+ 4 z553
+ 8 z554
+ 1 z555
+ 5 z556
+ 5 z557
+ 1 z558
+ 1 z559
+ 3 z560
+ 5 z561
+ 8 z562
+ 7 z563
+ 10 z564
+ 9 z565
+ 2 z566
+ 1 z567
+ 1 z568
+ 5 z569
+ 1 z570
+ 4 z571
+ 7 z572
+ 10 z573
+ 8 z574
+ 10 z575
+ 3 z576
+ 3 z577
+ 8 z578
+ 8 z579
+ 5 z580
+ 10 z581
+ 1 z582
+ 5 z583
+ 3 z584
+ 8 z585
+ 6 z586
+ 8 z587
+ 3 z588
+ 6 z589
+ 8 z590
+ 5 z591
+ 10 z592
+ 6 z593
+ 1 z594
+ 10 z595
+ 4 z596
+ 2 z597
+ 10 z598
+ 5 z599
+ 7 z600
+ 10 z601
+ 9 z602
+ 4 z603
+ 10 z604
+ 6 z605
+ 4 z606
+ 2 z607
+ 8 z608
+ 1 z609
+ 9 z610
+ 2 z611
+ 1 z612
+ 9 z613
+ 7 z614
+ 3 z615
+ 7 z616
+ 3 z617
+ 1 z618
+ 10 z619
+ 8 z620
+ 8 z621
+ 4 z622
+ 8 z623
+ 4 z624
+ 5 z625
+ 7 z626
+ 8 z627
+ 7 z628
+ 6 z629
+ 2 z630
+ 3 z631
+ 6 z632
+ 1 z633
+ 7 z634
+ 5 z635
+ 6 z636
+ 10 z637
+ 7 z638
+ 4 z639
+ 1 z640
+ 6 z641
+ 6 z642
+ 1 z643
+ 5 z644
+ 2 z645
+ 4 z646
+ 1 z647
+ 5 z648
+ 5 z649
+ 1 z650
+ 2 z651
+ 2 z652
+ 4 z653
+ 10 z654
+ 5 z655
+ 9 z656
+ 7 z657
+ 3 z658
+ 5 z659
+ 3 z660
+ 4 z661
+ 8 z662
+ 8 z663
+ 4 z664
+ 4 z665
+ 3 z666
+ 10 z667
+ 4 z668
+ 9 z669
+ 3 z670
+ 4 z671
+ 5 z672
+ 8 z673
+ 5 z674
+ 9 z675
+ 10 z676
+ 9 z677
+ 9 z678
+ 4 z679
+ 3 z680
+ 9 z681
+ 6 z682
+ 4 z683
+ 3 z684
+ 6 z685
+ 9 z686
+ 1 z687
+ 2 z688
+ 1 z689
+ 6 z690
+ 4 z691
+ 5 z692
+ 3 z693
+ 2 z694
+ 9 z695
+ 6 z696
+ 4 z697
+ 8 z698
+ 9 z699
+ 3 z700
+ 1 z701
+ 3 z702
+ 7 z703
+ 9 z704
+ 7 z705
+ 5 z706
+ 9 z707
+ 5 z708
+ 4 z709
+ 3 z710
+ 8 z711
+ 3 z712
+ 9 z713
+ 2 z714
+ 6 z715
+ 4 z716
+ 10 z717
+ 7 z718
+ 6 z719
+ 1 z720
+ 2 z721
+ 10 z722
+ 6 z723
+ 4 z724
+ 1 z725
+ 5 z726
+ 10 z727
+ 5 z728
+ 3 z729
+ 9 z730
+ 7 z731
+ 3 z732
+ 1 z733
+ 4 z734
+ 2 z735
+ 8 z736
+ 9 z737
+ 1 z738
+ 3 z739
+ 3 z740
+ 3 z741
+ 10 z742
+ 6 z743
+ 2 z744
+ 1 z745
+ 1 z746
+ 5 z747
+ 1 z748
+ 8 z749
+ 1 z750
+ 2 z751
+ 9 z752
+ 10 z753
+ 8 z754
+ 3 z755
+ 1 z756
+ 2 z757
+ 2 z758
+ 5 z759
+ 4 z760
+ 10 z761
+ 2 z762
+ 7 z763
+ 1 z764
+ 5 z765
+ 8 z766
+ 9 z767
+ 4 z768
+ 8 z769
+ 2 z770
+ 6 z771
+ 1 z772
+ 2 z773
+ 1 z774
+ 2 z775
+ 2 z776
+ 2 z777
+ 7 z778
+ 3 z779
+ 9 z780
+ 7 z781
+ 5 z782
+ 7 z783
+ 7 z784
+ 3 z785
+ 9 z786
+ 7 z787
+ 4 z788
+ 1 z789
+ 2 z790
+ 8 z791
+ 1 z792
+ 3 z793
+ 4 z794
+ 1 z795
+ 7 z796
+ 2 z797
+ 10 z798
+ 10 z799
+ 10 z800
+ 1 z801
+ 6 z802
+ 10 z803
+ 2 z804
+ 6 z805
+ 1 z806
+ 4 z807
+ 7 z808
+ 8 z809
+ 7 z810
+ 5 z811
+ 5 z812
+ 1 z813
+ 2 z814
+ 2 z815
+ 3 z816
+ 1 z817
+ 8 z818
+ 7 z819
+ 1 z820
+ 9 z821
+ 4 z822
+ 1 z823
+ 2 z824
+ 7 z825
+ 2 z826
+ 8 z827
+ 8 z828
+ 1 z829
+ 8 z830
+ 7 z831
+ 2 z832
+ 3 z833
+ 7 z834
+ 3 z835
+ 9 z836
+ 8 z837
+ 7 z838
+ 6 z839
+ 5 z840
+ 3 z841
+ 1 z842
+ 10 z843
+ 4 z844
+ 2 z845
+ 1 z846
+ 6 z847
+ 2 z848
+ 9 z849
+ 3 z850
+ 3 z851
+ 8 z852
+ 6 z853
+ 4 z854
+ 9 z855
+ 3 z856
+ 5 z857
+ 7 z858
+ 1 z859
+ 6 z860
+ 4 z861
+ 8 z862
+ 7 z863
+ 7 z864
+ 4 z865
+ 9 z866
+ 6 z867
+ 2 z868
+ 5 z869
+ 1 z870
+ 6 z871
+ 7 z872
+ 1 z873
+ 6 z874
+ 10 z875
+ 3 z876
+ 6 z877
+ 6 z878
+ 5 z879
+ 4 z880
+ 8 z881
+ 7 z882
+ 1 z883
+ 4 z884
+ 10 z885
+ 10 z886
+ 6 z887
+ 5 z888
+ 6 z889
+ 6 z890
+ 10 z891
+ 10 z892
+ 4 z893
+ 6 z894
+ 6 z895
+ 7 z896
+ 5 z897
+ 1 z898
+ 8 z899
+ 9 z900
+ 2 z901
+ 4 z902
+ 6 z903
+ 2 z904
+ 9 z905
+ 6 z906
+ 4 z907
+ 5 z908
+ 2 z909
+ 8 z910
+ 8 z911
+ 10 z912
+ 5 z913
+ 9 z914
+ 3 z915
+ 4 z916
+ 8 z917
+ 9 z918
+ 8 z919
+ 3 z920
+ 5 z921
+ 8 z922
+ 2 z923
+ 8 z924
+ 3 z925
+ 8 z926
+ 5 z927
+ 7 z928
+ 9 z929
+ 3 z930
+ 6 z931
+ 10 z932
+ 6 z933
+ 1 z934
+ 1 z935
+ 5 z936
+ 7 z937
+ 5 z938
+ 9 z939
+ 8 z940
+ 3 z941
+ 7 z942
+ 8 z943
+ 7 z944
+ 5 z945
+ 1 z946
+ 1 z947
+ 3 z948
+ 9 z949
+ 9 z950
+ 5 z951
+ 4 z952
+ 6 z953
+ 7 z954
+ 1 z955
+ 8 z956
+ 4 z957
+ 6 z958
+ 5 z959
+ 2 z960
+ 8 z961
+ 10 z962
+ 2 z963
+ 4 z964
+ 1 z965
+ 3 z966
+ 8 z967
+ 7 z968
+ 7 z969
+ 7 z970
+ 5 z971
+ 9 z972
+ 3 z973
+ 2 z974
+ 5 z975
+ 8 z976
+ 2 z977
+ 6 z978
+ 10 z979
+ 1 z980
+ 4 z981
+ 5 z982
+ 4 z983
+ 9 z984
+ 1 z985
+ 5 z986
+ 7 z987
+ 4 z988
+ 10 z989
+ 1 z990
+ 6 z991
+ 7 z992
+ 10 z993
+ 8 z994
+ 10 z995
+ 10 z996
+ 10 z997
+ 8 z998
+ 7 z999
+ 6 z1000
SUBJECT TO
- x121 + x123 >= 0
+ x66 - x130 >= 0
+ x88 + x94 >= 1
+ x94 - x150 >= 0
+ x77 + x138 >= 1
- x32 - x77 >= -1
+ x29 - x135 >= 0
- x3 - x149 >= -1
+ x31 + x51 >= 1
+ x8 - x81 >= 0
+ x78 + x115 >= 1
- x57 - x61 >= -1
+ x44 + x113 >= 1
+ x39 + x103 >= 1
- x71 + x88 >= 0
+ x74 - x126 >= 0
- x27 - x91 >= -1
+ x68 - x99 >= 0
+ x33 - x142 >= 0
- x48 - x145 >= -1
- x83 + x107 >= 0
+ x35 - x56 >= 0
+ x98 + x126 >= 1
+ x74 - x114 >= 0
+ x55 + x118 >= 1
+ x31 + x35 >= 1
+ x23 + x75 >= 1
+ x69 + x89 >= 1
+ x21 + x27 >= 1
+ x83 + x84 >= 1
- x31 - x85 >= -1
+ x48 - x111 >= 0
- x78 - x110 >= -1
+ x132 + x140 >= 1
- x39 - x56 >= -1
- x93 - x128 >= -1
+ x20 + x120 >= 1
- x80 - x103 >= -1
- x15 + x68 >= 0
+ x28 - x141 >= 0
+ x101 - x117 >= 0
+ x96 - x98 >= 0
- x35 - x134 >= -1
- x126 - x128 >= -1
- x13 - x146 >= -1
- x93 - x110 >= -1
+ x19 + x27 >= 1
+ x10 - x31 >= 0
- x76 + x148 >= 0
+ x3 - x21 >= 0
- x37 + x75 >= 0
- x50 + x75 >= 0
- x88 + x110 >= 0
- x70 - x74 >= -1
- x4 - x92 >= -1
+ x8 + x34 >= 1
- x83 - x110 >= -1
- x74 - x113 >= -1
+ x75 + x148 >= 1
- x124 - x150 >= -1
- x84 + x85 >= 0
- x9 - x102 >= -1
- x97 + x105 >= 0
+ x105 + x110 >= 1
- x70 + x145 >= 0
+ x69 + x100 >= 1
- x24 + x43 >= 0
- x16 - x57 >= -1
- x75 - x141 >= -1
- x26 - x49 >= -1
- x146 - x149 >= -1
- x109 + x138 >= 0
+ x129 + x133 >= 1
- x78 - x90 >= -1
- x81 - x133 >= -1
- x82 - x137 >= -1
- x7 + x48 >= 0
- x76 + x97 >= 0
+ x74 + x131 >= 1
- x29 + x118 >= 0
+ x7 - x119 >= 0
+ x59 + x119 >= 1
+ x9 + x50 >= 1
+ x91 - x136 >= 0
- x33 - x141 >= -1
+ x66 - x141 >= 0
- x112 + x121 >= 0
- x81 + x141 >= 0
- x41 - x49 >= -1
- x9 + x117 >= 0
+ x37 - x125 >= 0
+ x22 + x109 >= 1
+ x100 + x139 >= 1
- x104 + x129 >= 0
+ x26 + x66 >= 1
+ x77 + x106 >= 1
- x117 - x134 >= -1
+ x100 + x110 >= 1
+ x129 - x147 >= 0
+ x87 + x149 >= 1
- x106 + x138 >= 0
- x55 + x60 >= 0
+ x81 + x104 >= 1
+ x31 - x83 >= 0
+ x3 - x67 >= 0
- x7 - x113 >= -1
+ x79 - x135 >= 0
+ x49 - x77 >= 0
+ x5 + x8 >= 1
+ x63 - x97 >= 0
+ x50 - x69 >= 0
- x2 + x69 >= 0
+ x51 - x71 >= 0
+ x25 - x58 >= 0
- x103 + x119 >= 0
- x18 + x70 >= 0
- x77 - x125 >= -1
- x71 - x124 >= -1
+ x9 + x43 >= 1
- x78 - x129 >= -1
+ x29 - x46 >= 0
+ x24 - x70 >= 0
+ x91 + x143 >= 1
+ x10 - x146 >= 0
+ x118 + x120 >= 1
- x56 + x92 >= 0
- x62 + x65 >= 0
- x41 + x139 >= 0
- x22 + x34 >= 0
- x46 + x133 >= 0
- x27 + x74 >= 0
+ x22 - x81 >= 0
+ x48 - x95 >= 0
+ x43 - x150 >= 0
+ x105 - x150 >= 0
+ x46 + x138 >= 1
- x68 - x69 >= -1
+ x51 - x99 >= 0
- x51 + x125 >= 0
+ x77 - x131 >= 0
+ x19 + x21 >= 1
- x62 + x140 >= 0
+ x10 - x140 >= 0
- x73 - x149 >= -1
+ x68 + x123 >= 1
- x17 + x69 >= 0
- x43 - x74 >= -1
+ x30 + x128 >= 1
- x41 - x145 >= -1
- x125 - x126 >= -1
+ x102 + x136 + z151 >= 1
+ x100 + x105 + z152 >= 1
- x22 - x91 + z153 >= -1
+ x39 + x107 + z154 >= 1
- x9 + x82 + z155 >= 0
- x51 + x136 + z156 >= 0
- x92 + x120 + z157 >= 0
- x90 + x96 + z158 >= 0
- x32 - x41 + z159 >= -1
+ x37 + x136 + z160 >= 1
- x56 - x128 + z161 >= -1
+ x7 - x95 + z162 >= 0
- x15 - x145 + z163 >= -1
- x46 - x147 + z164 >= -1
+ x96 + x117 + z165 >= 1
- x35 - x85 + z166 >= -1
+ x116 - x130 + z167 >= 0
- x17 - x129 + z168 >= -1
- x35 - x56 + z169 >= -1
- x44 + x62 + z170 >= 0
- x39 - x142 + z171 >= -1
- x56 + x139 + z172 >= 0
+ x1 + x125 + z173 >= 1
+ x8 - x59 + z174 >= 0
+ x27 - x138 + z175 >= 0
- x5 + x84 + z176 >= 0
+ x78 + x139 + z177 >= 1
+ x23 - x121 + z178 >= 0
- x14 + x52 + z179 >= 0
- x15 - x107 + z180 >= -1
+ x123 - x140 + z181 >= 0
- x104 + x130 + z182 >= 0
- x48 - x130 + z183 >= -1
- x119 + x131 + z184 >= 0
+ x41 + x46 + z185 >= 1
+ x63 - x146 + z186 >= 0
- x47 + x121 + z187 >= 0
- x35 - x135 + z188 >= -1
+ x7 - x105 + z189 >= 0
- x58 + x94 + z190 >= 0
- x74 + x141 + z191 >= 0
- x42 - x45 + z192 >= -1
- x85 - x111 + z193 >= -1
+ x107 + x131 + z194 >= 1
- x2 + x101 + z195 >= 0
+ x37 + x118 + z196 >= 1
+ x72 - x81 + z197 >= 0
+ x24 + x132 + z198 >= 1
- x39 - x55 + z199 >= -1
+ x77 + x83 + z200 >= 1
+ x38 - x138 + z201 >= 0
+ x89 - x118 + z202 >= 0
- x3 + x91 + z203 >= 0
+ x62 + x120 + z204 >= 1
+ x48 + x143 + z205 >= 1
+ x30 - x37 + z206 >= 0
+ x17 + x75 + z207 >= 1
- x64 + x94 + z208 >= 0
+ x40 - x52 + z209 >= 0
+ x122 - x129 + z210 >= 0
- x91 + x125 + z211 >= 0
- x3 - x65 + z212 >= -1
- x6 + x113 + z213 >= 0
- x42 - x43 + z214 >= -1
- x59 + x106 + z215 >= 0
- x20 + x149 + z216 >= 0
- x38 + x108 + z217 >= 0
+ x29 - x79 + z218 >= 0
- x119 - x130 + z219 >= -1
- x45 + x132 + z220 >= 0
+ x127 - x138 + z221 >= 0
- x19 - x75 + z222 >= -1
- x31 + x119 + z223 >= 0
+ x62 - x118 + z224 >= 0
+ x20 - x63 + z225 >= 0
+ x91 + x105 + z226 >= 1
+ x85 - x148 + z227 >= 0
- x130 - x145 + z228 >= -1
- x121 - x135 + z229 >= -1
+ x59 - x142 + z230 >= 0
- x111 - x146 + z231 >= -1
- x58 - x112 + z232 >= -1
+ x25 - x103 + z233 >= 0
- x26 + x58 + z234 >= 0
- x24 + x54 + z235 >= 0
- x48 + x106 + z236 >= 0
+ x91 - x117 + z237 >= 0
+ x74 - x108 + z238 >= 0
- x70 - x79 + z239 >= -1
+ x41 + x78 + z240 >= 1
+ x31 - x79 + z241 >= 0
- x54 - x104 + z242 >= -1
+ x50 - x108 + z243 >= 0
+ x6 - x101 + z244 >= 0
+ x30 - x67 + z245 >= 0
+ x34 - x104 + z246 >= 0
+ x88 - x112 + z247 >= 0
+ x15 + x53 + z248 >= 1
- x97 - x131 + z249 >= -1
- x62 + x150 + z250 >= 0
- x43 - x112 + z251 >= -1
+ x135 + x144 + z252 >= 1
- x8 - x15 + z253 >= -1
+ x27 - x41 + z254 >= 0
+ x114 - x139 + z255 >= 0
+ x41 + x71 + z256 >= 1
+ x5 - x17 + z257 >= 0
+ x17 - x67 + z258 >= 0
- x59 + x86 + z259 >= 0
- x58 - x70 + z260 >= -1
- x46 + x65 + z261 >= 0
+ x41 - x73 + z262 >= 0
+ x30 + x112 + z263 >= 1
- x33 + x38 + z264 >= 0
+ x42 - x45 + z265 >= 0
- x39 - x61 + z266 >= -1
+ x125 + x131 + z267 >= 1
- x38 - x133 + z268 >= -1
+ x29 - x30 + z269 >= 0
- x16 - x70 + z270 >= -1
+ x2 + x127 + z271 >= 1
+ x39 - x109 + z272 >= 0
+ x3 + x124 + z273 >= 1
+ x12 - x25 + z274 >= 0
+ x5 + x54 + z275 >= 1
+ x8 - x37 + z276 >= 0
+ x37 - x52 + z277 >= 0
+ x2 + x67 + z278 >= 1
+ x3 + x74 + z279 >= 1
- x32 + x111 + z280 >= 0
- x10 - x84 + z281 >= -1
- x34 + x131 + z282 >= 0
- x34 + x111 + z283 >= 0
+ x74 - x119 + z284 >= 0
- x125 + x150 + z285 >= 0
- x2 + x17 + z286 >= 0
+ x90 - x136 + z287 >= 0
+ x17 + x96 + z288 >= 1
- x26 + x103 + z289 >= 0
- x56 - x83 + z290 >= -1
+ x16 - x26 + z291 >= 0
+ x20 - x99 + z292 >= 0
- x20 + x101 + z293 >= 0
+ x47 + x117 + z294 >= 1
+ x33 - x70 + z295 >= 0
- x32 + x86 + z296 >= 0
+ x132 + x134 + z297 >= 1
+ x37 + x115 + z298 >= 1
- x69 + x141 + z299 >= 0
- x26 + x88 + z300 >= 0
- x124 - x126 + z301 >= -1
+ x2 - x20 + z302 >= 0
+ x25 + x72 + z303 >= 1
+ x38 - x57 + z304 >= 0
- x20 + x138 + z305 >= 0
- x103 - x139 + z306 >= -1
+ x57 - x145 + z307 >= 0
- x20 - x41 + z308 >= -1
- x15 + x80 + z309 >= 0
- x82 + x85 + z310 >= 0
+ x110 + x117 + z311 >= 1
+ x4 + x129 + z312 >= 1
+ x13 - x116 + z313 >= 0
+ x1 + x37 + z314 >= 1
+ x32 + x41 + z315 >= 1
- x5 + x81 + z316 >= 0
- x84 + x133 + z317 >= 0
+ x66 + x67 + z318 >= 1
+ x28 + x33 + z319 >= 1
+ x6 - x98 + z320 >= 0
+ x110 - x138 + z321 >= 0
+ x25 + x48 + z322 >= 1
+ x70 - x88 + z323 >= 0
+ x3 - x74 + z324 >= 0
+ x94 + x136 + z325 >= 1
- x10 + x40 + z326 >= 0
- x67 + x120 + z327 >= 0
+ x67 + x137 + z328 >= 1
- x81 - x125 + z329 >= -1
+ x5 + x129 + z330 >= 1
- x13 - x75 + z331 >= -1
+ x16 + x49 + z332 >= 1
+ x28 + x142 + z333 >= 1
+ x67 - x132 + z334 >= 0
+ x101 + x120 + z335 >= 1
- x98 + x106 + z336 >= 0
- x29 + x31 + z337 >= 0
+ x35 - x135 + z338 >= 0
+ x7 - x147 + z339 >= 0
+ x56 + x112 + z340 >= 1
+ x65 + x140 + z341 >= 1
+ x46 - x91 + z342 >= 0
+ x60 + x94 + z343 >= 1
- x42 + x59 + z344 >= 0
- x24 - x90 + z345 >= -1
- x8 + x149 + z346 >= 0
+ x6 + x40 + z347 >= 1
- x2 - x28 + z348 >= -1
- x6 + x93 + z349 >= 0
+ x85 - x96 + z350 >= 0
+ x29 + x150 + z351 >= 1
- x59 - x115 + z352 >= -1
- x66 - x139 + z353 >= -1
+ x55 + x65 + z354 >= 1
- x17 - x95 + z355 >= -1
- x44 - x87 + z356 >= -1
- x92 + x132 + z357 >= 0
+ x67 - x110 + z358 >= 0
+ x62 + x110 + z359 >= 1
+ x5 + x26 + z360 >= 1
+ x70 - x139 + z361 >= 0
- x12 + x44 + z362 >= 0
- x28 + x33 + z363 >= 0
+ x20 + x120 + z364 >= 1
- x2 + x32 + z365 >= 0
- x140 + x142 + z366 >= 0
- x28 - x52 + z367 >= -1
- x32 - x137 + z368 >= -1
+ x103 - x126 + z369 >= 0
+ x114 - x139 + z370 >= 0
+ x22 - x92 + z371 >= 0
+ x112 - x121 + z372 >= 0
+ x3 - x150 + z373 >= 0
+ x45 - x140 + z374 >= 0
- x66 - x73 + z375 >= -1
+ x52 + x60 + z376 >= 1
+ x12 - x142 + z377 >= 0
+ x55 - x131 + z378 >= 0
- x30 - x146 + z379 >= -1
+ x1 + x44 + z380 >= 1
- x43 + x102 + z381 >= 0
+ x92 + x147 + z382 >= 1
+ x7 + x41 + z383 >= 1
- x80 - x100 + z384 >= -1
- x72 + x133 + z385 >= 0
+ x38 + x54 + z386 >= 1
- x44 - x84 + z387 >= -1
- x61 - x87 + z388 >= -1
+ x12 + x83 + z389 >= 1
- x25 + x85 + z390 >= 0
- x101 - x126 + z391 >= -1
- x27 + x30 + z392 >= 0
+ x10 + x125 + z393 >= 1
- x29 - x54 + z394 >= -1
+ x70 + x98 + z395 >= 1
+ x131 - x133 + z396 >= 0
- x26 + x66 + z397 >= 0
- x77 - x111 + z398 >= -1
+ x28 + x62 + z399 >= 1
- x50 + x88 + z400 >= 0
+ x10 - x24 + z401 >= 0
+ x64 + x73 + z402 >= 1
- x61 + x143 + z403 >= 0
- x43 - x60 + z404 >= -1
+ x86 + x115 + z405 >= 1
+ x19 - x42 + z406 >= 0
- x81 + x146 + z407 >= 0
- x46 + x134 + z408 >= 0
+ x109 - x144 + z409 >= 0
+ x32 + x136 + z410 >= 1
- x46 - x114 + z411 >= -1
+ x24 - x112 + z412 >= 0
+ x76 - x94 + z413 >= 0
+ x113 + x139 + z414 >= 1
+ x13 + x134 + z415 >= 1
- x26 - x146 + z416 >= -1
+ x70 + x134 + z417 >= 1
+ x55 - x114 + z418 >= 0
- x36 + x77 + z419 >= 0
+ x86 + x148 + z420 >= 1
+ x29 - x64 + z421 >= 0
+ x53 + x78 + z422 >= 1
+ x90 - x94 + z423 >= 0
- x14 + x120 + z424 >= 0
- x83 - x119 + z425 >= -1
+ x8 - x83 + z426 >= 0
- x43 + x128 + z427 >= 0
- x17 - x64 + z428 >= -1
- x4 - x81 + z429 >= -1
+ x82 + x117 + z430 >= 1
- x61 + x85 + z431 >= 0
+ x29 - x99 + z432 >= 0
- x100 + x148 + z433 >= 0
- x89 + x108 + z434 >= 0
+ x41 - x47 + z435 >= 0
- x4 + x91 + z436 >= 0
- x24 - x128 + z437 >= -1
- x109 + x148 + z438 >= 0
+ x64 - x79 + z439 >= 0
- x61 + x62 + z440 >= 0
+ x20 - x81 + z441 >= 0
- x109 + x118 + z442 >= 0
+ x9 + x121 + z443 >= 1
+ x62 - x64 + z444 >= 0
+ x41 + x107 + z445 >= 1
- x66 - x124 + z446 >= -1
- x1 + x53 + z447 >= 0
- x12 - x62 + z448 >= -1
+ x32 - x92 + z449 >= 0
+ x3 - x60 + z450 >= 0
+ x63 - x123 + z451 >= 0
+ x98 - x127 + z452 >= 0
- x43 + x55 + z453 >= 0
- x16 + x26 + z454 >= 0
- x20 + x27 + z455 >= 0
+ x6 - x32 + z456 >= 0
+ x98 + x110 + z457 >= 1
- x46 + x112 + z458 >= 0
- x4 - x109 + z459 >= -1
+ x87 - x102 + z460 >= 0
- x8 - x129 + z461 >= -1
+ x33 + x74 + z462 >= 1
- x94 - x95 + z463 >= -1
+ x77 + x101 + z464 >= 1
+ x37 - x89 + z465 >= 0
- x129 - x135 + z466 >= -1
- x52 + x132 + z467 >= 0
- x130 - x138 + z468 >= -1
+ x64 - x137 + z469 >= 0
- x26 - x138 + z470 >= -1
+ x75 + x120 + z471 >= 1
- x1 + x93 + z472 >= 0
+ x22 + x31 + z473 >= 1
- x118 - x150 + z474 >= -1
+ x19 + x137 + z475 >= 1
- x3 - x117 + z476 >= -1
- x67 + x86 + z477 >= 0
- x51 - x111 + z478 >= -1
- x39 + x126 + z479 >= 0
+ x118 + x132 + z480 >= 1
- x49 + x139 + z481 >= 0
- x17 + x137 + z482 >= 0
- x34 + x124 + z483 >= 0
- x16 + x37 + z484 >= 0
+ x17 + x101 + z485 >= 1
- x68 + x141 + z486 >= 0
+ x30 + x142 + z487 >= 1
- x32 + x110 + z488 >= 0
- x51 - x81 + z489 >= -1
- x37 + x55 + z490 >= 0
- x24 - x89 + z491 >= -1
- x39 - x143 + z492 >= -1
+ x10 - x86 + z493 >= 0
- x43 - x77 + z494 >= -1
- x35 - x137 + z495 >= -1
- x19 - x140 + z496 >= -1
- x27 + x41 + z497 >= 0
+ x27 - x82 + z498 >= 0
- x37 - x50 + z499 >= -1
- x30 + x75 + z500 >= 0
- x11 - x129 + z501 >= -1
+ x21 + x83 + z502 >= 1
- x10 + x70 + z503 >= 0
+ x139 + x150 + z504 >= 1
- x15 - x83 + z505 >= -1
+ x53 - x109 + z506 >= 0
- x90 - x112 + z507 >= -1
+ x24 + x37 + z508 >= 1
- x2 + x122 + z509 >= 0
- x27 - x55 + z510 >= -1
+ x36 + x124 + z511 >= 1
- x99 + x113 + z512 >= 0
+ x32 - x42 + z513 >= 0
+ x39 - x94 + z514 >= 0
+ x1 + x95 + z515 >= 1
- x9 - x119 + z516 >= -1
+ x68 - x130 + z517 >= 0
- x69 + x94 + z518 >= 0
+ x43 + x70 + z519 >= 1
- x19 + x90 + z520 >= 0
+ x55 + x131 + z521 >= 1
- x39 - x94 + z522 >= -1
- x110 - x134 + z523 >= -1
- x64 + x118 + z524 >= 0
+ x65 - x131 + z525 >= 0
+ x134 + x140 + z526 >= 1
+ x60 - x68 + z527 >= 0
- x8 - x14 + z528 >= -1
+ x18 + x69 + z529 >= 1
+ x20 - x56 + z530 >= 0
- x85 - x130 + z531 >= -1
- x62 + x148 + z532 >= 0
- x28 + x127 + z533 >= 0
- x17 - x106 + z534 >= -1
+ x18 + x24 + z535 >= 1
+ x32 - x131 + z536 >= 0
+ x81 - x148 + z537 >= 0
- x65 - x101 + z538 >= -1
- x82 + x149 + z539 >= 0
- x73 - x144 + z540 >= -1
- x28 - x100 + z541 >= -1
+ x66 + x133 + z542 >= 1
- x46 + x84 + z543 >= 0
+ x26 + x56 + z544 >= 1
- x25 - x137 + z545 >= -1
- x19 + x90 + z546 >= 0
- x45 - x100 + z547 >= -1
+ x60 + x117 + z548 >= 1
+ x87 + x143 + z549 >= 1
+ x59 - x75 + z550 >= 0
- x112 - x120 + z551 >= -1
+ x17 + x21 + z552 >= 1
- x46 - x96 + z553 >= -1
+ x107 + x115 + z554 >= 1
+ x1 - x8 + z555 >= 0
+ x68 + x70 + z556 >= 1
+ x62 - x67 + z557 >= 0
- x142 - x149 + z558 >= -1
- x68 - x110 + z559 >= -1
- x89 - x126 + z560 >= -1
+ x69 - x72 + z561 >= 0
- x25 + x42 + z562 >= 0
- x50 - x107 + z563 >= -1
- x26 - x28 + z564 >= -1
- x44 + x95 + z565 >= 0
+ x18 + x43 + z566 >= 1
+ x4 - x86 + z567 >= 0
+ x108 + x130 + z568 >= 1
- x26 + x128 + z569 >= 0
- x19 + x38 + z570 >= 0
+ x70 + x144 + z571 >= 1
+ x6 - x97 + z572 >= 0
- x11 - x50 + z573 >= -1
- x24 - x29 + z574 >= -1
- x28 + x72 + z575 >= 0
+ x29 + x147 + z576 >= 1
- x124 - x146 + z577 >= -1
+ x31 + x33 + z578 >= 1
+ x95 + x100 + z579 >= 1
- x100 - x149 + z580 >= -1
- x10 + x64 + z581 >= 0
- x34 + x88 + z582 >= 0
- x105 - x140 + z583 >= -1
- x30 + x136 + z584 >= 0
- x25 + x143 + z585 >= 0
- x11 - x23 + z586 >= -1
+ x105 + x127 + z587 >= 1
- x106 + x126 + z588 >= 0
+ x20 - x143 + z589 >= 0
- x24 + x26 + z590 >= 0
- x14 - x42 + z591 >= -1
- x2 - x72 + z592 >= -1
+ x58 + x145 + z593 >= 1
- x68 + x87 + z594 >= 0
+ x8 - x63 + z595 >= 0
+ x114 - x129 + z596 >= 0
- x46 - x122 + z597 >= -1
- x12 - x70 + z598 >= -1
- x54 - x92 + z599 >= -1
- x39 + x94 + z600 >= 0
+ x74 - x96 + z601 >= 0
+ x10 + x94 + z602 >= 1
- x102 + x112 + z603 >= 0
+ x90 + x134 + z604 >= 1
+ x30 - x139 + z605 >= 0
+ x37 + x150 + z606 >= 1
+ x115 + x129 + z607 >= 1
+ x3 - x98 + z608 >= 0
- x21 + x115 + z609 >= 0
- x58 + x146 + z610 >= 0
+ x63 + x107 + z611 >= 1
- x47 - x124 + z612 >= -1
- x17 + x112 + z613 >= 0
+ x53 + x59 + z614 >= 1
- x24 + x42 + z615 >= 0
+ x113 - x139 + z616 >= 0
+ x77 - x84 + z617 >= 0
- x80 + x141 + z618 >= 0
- x53 - x69 + z619 >= -1
+ x41 + x42 + z620 >= 1
- x52 - x57 + z621 >= -1
- x110 - x130 + z622 >= -1
+ x22 + x94 + z623 >= 1
+ x56 - x132 + z624 >= 0
- x58 - x66 + z625 >= -1
+ x49 - x111 + z626 >= 0
+ x29 + x114 + z627 >= 1
+ x5 + x75 + z628 >= 1
- x39 + x127 + z629 >= 0
+ x11 + x19 + z630 >= 1
+ x78 + x104 + z631 >= 1
- x59 - x69 + z632 >= -1
+ x109 - x127 + z633 >= 0
- x1 - x69 + z634 >= -1
- x26 + x115 + z635 >= 0
- x92 + x101 + z636 >= 0
- x51 + x131 + z637 >= 0
+ x62 + x81 + z638 >= 1
+ x9 + x87 + z639 >= 1
+ x5 - x16 + z640 >= 0
+ x12 + x124 + z641 >= 1
- x12 - x131 + z642 >= -1
- x6 - x8 + z643 >= -1
+ x99 - x126 + z644 >= 0
- x26 - x44 + z645 >= -1
- x115 - x125 + z646 >= -1
+ x52 + x126 + z647 >= 1
- x92 + x142 + z648 >= 0
- x43 + x104 + z649 >= 0
- x24 + x147 + z650 >= 0
- x4 - x36 + z651 >= -1
+ x11 + x17 + z652 >= 1
- x61 + x109 + z653 >= 0
+ x74 - x75 + z654 >= 0
+ x51 + x69 + z655 >= 1
+ x11 - x70 + z656 >= 0
- x14 - x113 + z657 >= -1
+ x10 + x20 + z658 >= 1
- x56 + x150 + z659 >= 0
- x16 - x146 + z660 >= -1
+ x76 - x104 + z661 >= 0
+ x1 + x129 + z662 >= 1
+ x34 - x48 + z663 >= 0
+ x100 + x103 + z664 >= 1
- x99 + x113 + z665 >= 0
+ x66 - x119 + z666 >= 0
- x66 - x99 + z667 >= -1
+ x43 + x95 + z668 >= 1
- x75 - x118 + z669 >= -1
- x20 - x77 + z670 >= -1
+ x52 + x113 + z671 >= 1
+ x72 + x128 + z672 >= 1
- x28 - x148 + z673 >= -1
- x13 + x133 + z674 >= 0
- x90 + x102 + z675 >= 0
+ x73 - x97 + z676 >= 0
+ x81 + x147 + z677 >= 1
+ x4 + x100 + z678 >= 1
- x55 - x95 + z679 >= -1
- x2 - x72 + z680 >= -1
- x137 + x149 + z681 >= 0
- x52 + x149 + z682 >= 0
- x87 - x141 + z683 >= -1
+ x10 + x56 + z684 >= 1
- x11 - x136 + z685 >= -1
- x15 + x112 + z686 >= 0
+ x57 - x124 + z687 >= 0
- x44 - x126 + z688 >= -1
- x31 + x121 + z689 >= 0
+ x17 - x22 + z690 >= 0
- x74 - x103 + z691 >= -1
- x100 - x130 + z692 >= -1
- x48 + x110 + z693 >= 0
+ x10 + x50 + z694 >= 1
+ x24 - x91 + z695 >= 0
+ x121 - x135 + z696 >= 0
- x77 + x92 + z697 >= 0
+ x24 - x93 + z698 >= 0
- x74 + x98 + z699 >= 0
+ x24 - x127 + z700 >= 0
- x24 + x94 + z701 >= 0
+ x2 - x143 + z702 >= 0
+ x92 - x142 + z703 >= 0
- x112 + x136 + z704 >= 0
+ x63 + x135 + z705 >= 1
+ x9 - x141 + z706 >= 0
- x60 + x65 + z707 >= 0
+ x36 + x77 + z708 >= 1
- x20 + x29 + z709 >= 0
+ x30 - x40 + z710 >= 0
+ x31 - x42 + z711 >= 0
+ x28 - x138 + z712 >= 0
- x62 - x122 + z713 >= -1
- x53 - x147 + z714 >= -1
+ x56 - x120 + z715 >= 0
+ x47 + x128 + z716 >= 1
- x6 + x92 + z717 >= 0
+ x105 + x132 + z718 >= 1
+ x54 + x147 + z719 >= 1
- x42 + x51 + z720 >= 0
+ x60 - x113 + z721 >= 0
- x56 - x81 + z722 >= -1
- x39 + x50 + z723 >= 0
+ x16 + x53 + z724 >= 1
- x89 + x145 + z725 >= 0
- x44 + x64 + z726 >= 0
+ x118 + x144 + z727 >= 1
+ x29 + x45 + z728 >= 1
- x16 + x88 + z729 >= 0
- x5 - x96 + z730 >= -1
+ x9 - x44 + z731 >= 0
- x61 + x104 + z732 >= 0
+ x42 - x137 + z733 >= 0
+ x21 - x51 + z734 >= 0
+ x14 + x41 + z735 >= 1
+ x49 + x69 + z736 >= 1
- x65 + x87 + z737 >= 0
+ x92 - x106 + z738 >= 0
+ x98 + x114 + z739 >= 1
- x51 - x123 + z740 >= -1
+ x110 + x112 + z741 >= 1
- x4 + x132 + z742 >= 0
+ x44 - x54 + z743 >= 0
- x103 + x118 + z744 >= 0
+ x54 - x118 + z745 >= 0
+ x33 - x73 + z746 >= 0
+ x23 + x130 + z747 >= 1
- x140 - x145 + z748 >= -1
- x101 - x150 + z749 >= -1
- x3 + x141 + z750 >= 0
+ x45 - x129 + z751 >= 0
+ x97 + x126 + z752 >= 1
+ x41 - x94 + z753 >= 0
+ x73 + x125 + z754 >= 1
- x112 - x147 + z755 >= -1
+ x54 - x101 + z756 >= 0
- x54 + x60 + z757 >= 0
- x51 - x59 + z758 >= -1
- x38 - x110 + z759 >= -1
- x86 + x106 + z760 >= 0
+ x130 + x146 + z761 >= 1
- x97 - x105 + z762 >= -1
+ x52 - x58 + z763 >= 0
+ x40 + x105 + z764 >= 1
- x43 + x100 + z765 >= 0
- x16 - x102 + z766 >= -1
+ x37 - x126 + z767 >= 0
- x109 - x143 + z768 >= -1
+ x89 + x135 + z769 >= 1
- x25 - x81 + z770 >= -1
- x76 + x88 + z771 >= 0
- x57 + x128 + z772 >= 0
- x100 + x103 + z773 >= 0
- x21 + x119 + z774 >= 0
+ x15 + x58 + z775 >= 1
+ x95 + x124 + z776 >= 1
- x79 + x93 + z777 >= 0
+ x100 - x118 + z778 >= 0
+ x37 + x145 + z779 >= 1
- x52 + x113 + z780 >= 0
+ x17 + x65 + z781 >= 1
- x38 - x94 + z782 >= -1
- x109 - x133 + z783 >= -1
+ x32 - x77 + z784 >= 0
- x98 + x125 + z785 >= 0
- x13 - x48 + z786 >= -1
- x7 + x58 + z787 >= 0
+ x20 - x39 + z788 >= 0
- x55 - x112 + z789 >= -1
+ x55 + x95 + z790 >= 1
+ x31 - x77 + z791 >= 0
+ x63 + x88 + z792 >= 1
- x24 - x36 + z793 >= -1
+ x36 + x112 + z794 >= 1
- x20 + x116 + z795 >= 0
- x4 + x10 + z796 >= 0
+ x91 + x122 + z797 >= 1
+ x35 - x37 + z798 >= 0
- x68 - x135 + z799 >= -1
+ x73 - x122 + z800 >= 0
+ x145 + x146 + z801 >= 1
- x59 + x107 + z802 >= 0
+ x24 + x25 + z803 >= 1
- x35 + x139 + z804 >= 0
+ x79 - x87 + z805 >= 0
+ x72 + x124 + z806 >= 1
- x37 + x56 + z807 >= 0
- x9 + x38 + z808 >= 0
+ x32 - x128 + z809 >= 0
- x36 + x108 + z810 >= 0
+ x129 - x132 + z811 >= 0
+ x24 + x117 + z812 >= 1
- x54 + x110 + z813 >= 0
+ x81 - x126 + z814 >= 0
+ x117 - x144 + z815 >= 0
- x31 + x96 + z816 >= 0
- x12 + x73 + z817 >= 0
- x14 + x120 + z818 >= 0
- x104 - x143 + z819 >= -1
+ x127 - x138 + z820 >= 0
+ x11 + x41 + z821 >= 1
+ x92 + x143 + z822 >= 1
+ x56 + x137 + z823 >= 1
- x2 + x11 + z824 >= 0
+ x23 - x130 + z825 >= 0
- x49 - x144 + z826 >= -1
- x2 - x59 + z827 >= -1
+ x47 - x98 + z828 >= 0
+ x85 - x109 + z829 >= 0
- x77 + x150 + z830 >= 0
- x56 + x140 + z831 >= 0
- x1 + x10 + z832 >= 0
- x12 + x140 + z833 >= 0
- x60 + x107 + z834 >= 0
+ x16 + x64 + z835 >= 1
- x12 - x105 + z836 >= -1
+ x39 - x102 + z837 >= 0
+ x101 + x127 + z838 >= 1
- x108 + x117 + z839 >= 0
- x43 - x118 + z840 >= -1
- x4 - x54 + z841 >= -1
- x58 + x111 + z842 >= 0
- x64 + x122 + z843 >= 0
- x19 + x36 + z844 >= 0
- x122 + x138 + z845 >= 0
+ x51 - x99 + z846 >= 0
- x8 + x9 + z847 >= 0
- x22 - x50 + z848 >= -1
- x21 + x26 + z849 >= 0
- x79 + x91 + z850 >= 0
+ x5 + x149 + z851 >= 1
- x35 + x135 + z852 >= 0
+ x103 - x107 + z853 >= 0
- x4 + x55 + z854 >= 0
- x2 - x62 + z855 >= -1
+ x23 + x69 + z856 >= 1
+ x90 + x132 + z857 >= 1
+ x73 - x145 + z858 >= 0
+ x101 - x143 + z859 >= 0
+ x30 + x85 + z860 >= 1
- x9 - x133 + z861 >= -1
- x63 - x65 + z862 >= -1
- x66 - x135 + z863 >= -1
- x1 - x53 + z864 >= -1
+ x19 + x133 + z865 >= 1
- x13 + x78 + z866 >= 0
+ x29 - x82 + z867 >= 0
- x82 + x111 + z868 >= 0
- x91 + x100 + z869 >= 0
- x14 - x75 + z870 >= -1
+ x59 - x64 + z871 >= 0
+ x3 - x64 + z872 >= 0
- x22 + x114 + z873 >= 0
+ x42 + x82 + z874 >= 1
+ x13 - x72 + z875 >= 0
+ x4 - x37 + z876 >= 0
- x136 - x144 + z877 >= -1
- x69 - x76 + z878 >= -1
+ x97 - x139 + z879 >= 0
- x44 - x100 + z880 >= -1
+ x7 + x49 + z881 >= 1
- x44 - x131 + z882 >= -1
- x2 - x115 + z883 >= -1
+ x33 + x38 + z884 >= 1
- x10 + x27 + z885 >= 0
+ x85 + x102 + z886 >= 1
- x12 - x49 + z887 >= -1
- x55 + x73 + z888 >= 0
- x121 - x124 + z889 >= -1
- x17 - x79 + z890 >= -1
- x61 - x81 + z891 >= -1
- x11 - x93 + z892 >= -1
- x14 + x20 + z893 >= 0
+ x116 + x137 + z894 >= 1
+ x3 + x149 + z895 >= 1
- x76 + x133 + z896 >= 0
- x76 - x106 + z897 >= -1
- x5 - x91 + z898 >= -1
+ x1 - x54 + z899 >= 0
- x44 + x65 + z900 >= 0
+ x57 + x128 + z901 >= 1
- x67 + x114 + z902 >= 0
- x50 + x69 + z903 >= 0
+ x33 - x130 + z904 >= 0
+ x36 - x55 + z905 >= 0
- x66 - x127 + z906 >= -1
+ x46 + x120 + z907 >= 1
- x89 - x135 + z908 >= -1
- x7 + x112 + z909 >= 0
- x55 + x73 + z910 >= 0
- x53 - x105 + z911 >= -1
- x24 - x32 + z912 >= -1
- x60 + x86 + z913 >= 0
+ x2 - x138 + z914 >= 0
+ x34 - x86 + z915 >= 0
- x70 + x122 + z916 >= 0
- x129 + x135 + z917 >= 0
+ x39 - x144 + z918 >= 0
- x27 - x46 + z919 >= -1
+ x51 - x106 + z920 >= 0
+ x9 - x42 + z921 >= 0
+ x10 + x147 + z922 >= 1
+ x18 + x96 + z923 >= 1
- x117 + x140 + z924 >= 0
- x2 + x101 + z925 >= 0
+ x62 - x145 + z926 >= 0
- x88 - x114 + z927 >= -1
- x70 - x131 + z928 >= -1
- x94 + x139 + z929 >= 0
+ x17 + x104 + z930 >= 1
+ x14 + x34 + z931 >= 1
- x109 - x131 + z932 >= -1
- x11 + x111 + z933 >= 0
+ x55 - x72 + z934 >= 0
- x19 - x113 + z935 >= -1
+ x93 - x95 + z936 >= 0
+ x39 - x52 + z937 >= 0
+ x68 - x79 + z938 >= 0
- x93 + x105 + z939 >= 0
+ x63 + x117 + z940 >= 1
+ x75 - x127 + z941 >= 0
- x124 + x129 + z942 >= 0
+ x55 - x87 + z943 >= 0
+ x133 - x150 + z944 >= 0
- x25 + x34 + z945 >= 0
+ x72 + x104 + z946 >= 1
- x26 - x30 + z947 >= -1
- x123 - x146 + z948 >= -1
+ x48 + x90 + z949 >= 1
+ x64 - x79 + z950 >= 0
- x108 + x133 + z951 >= 0
+ x91 - x139 + z952 >= 0
- x14 - x51 + z953 >= -1
+ x123 - x130 + z954 >= 0
- x9 + x132 + z955 >= 0
+ x47 - x104 + z956 >= 0
+ x137 + x148 + z957 >= 1
+ x51 + x76 + z958 >= 1
+ x9 - x79 + z959 >= 0
- x62 + x68 + z960 >= 0
+ x113 - x148 + z961 >= 0
- x61 - x127 + z962 >= -1
- x18 - x42 + z963 >= -1
- x65 + x116 + z964 >= 0
+ x24 - x113 + z965 >= 0
- x2 - x75 + z966 >= -1
+ x81 - x138 + z967 >= 0
- x50 + x104 + z968 >= 0
- x101 - x127 + z969 >= -1
- x29 + x38 + z970 >= 0
- x47 - x53 + z971 >= -1
+ x18 - x72 + z972 >= 0
+ x96 + x113 + z973 >= 1
- x115 + x116 + z974 >= 0
+ x104 + x135 + z975 >= 1
+ x88 + x121 + z976 >= 1
- x98 - x112 + z977 >= -1
+ x30 + x140 + z978 >= 1
- x83 - x141 + z979 >= -1
+ x9 - x62 + z980 >= 0
- x100 + x122 + z981 >= 0
- x65 + x132 + z982 >= 0
+ x22 + x116 + z983 >= 1
- x36 - x143 + z984 >= -1
- x59 - x147 + z985 >= -1
+ x89 + x142 + z986 >= 1
+ x19 - x132 + z987 >= 0
+ x27 - x51 + z988 >= 0
+ x80 - x150 + z989 >= 0
- x61 + x64 + z990 >= 0
- x86 - x105 + z991 >= -1
- x22 + x141 + z992 >= 0
- x81 + x96 + z993 >= 0
+ x87 + x146 + z994 >= 1
+ x10 - x15 + z995 >= 0
+ x13 + x61 + z996 >= 1
- x92 + x124 + z997 >= 0
+ x37 - x59 + z998 >= 0
+ x14 + x108 + z999 >= 1
+ x70 - x130 + z1000 >= 0
BINARY
x1
x2
x3
x4
x5
x6
x7
x8
x9
x10
x11
x12
x13
x14
x15
x16
x17
x18
x19
x20
x21
x22
x23
x24
x25
x26
x27
x28
x29
x30
x31
x32
x33
x34
x35
x36
x37
x38
x39
x40
x41
x42
x43
x44
x45
x46
x47
x48
x49
x50
x51
x52
x53
x54
x55
x56
x57
x58
x59
x60
x61
x62
x63
x64
x65
x66
x67
x68
x69
x70
x71
x72
x73
x74
x75
x76
x77
x78
x79
x80
x81
x82
x83
x84
x85
x86
x87
x88
x89
x90
x91
x92
x93
x94
x95
x96
x97
x98
x99
x100
x101
x102
x103
x104
x105
x106
x107
x108
x109
x110
x111
x112
x113
x114
x115
x116
x117
x118
x119
x120
x121
x122
x123
x124
x125
x126
x127
x128
x129
x130
x131
x132
x133
x134
x135
x136
x137
x138
x139
x140
x141
x142
x143
x144
x145
x146
x147
x148
x149
x150
z151
z152
z153
z154
z155
z156
z157
z158
z159
z160
z161
z162
z163
z164
z165
z166
z167
z168
z169
z170
z171
z172
z173
z174
z175
z176
z177
z178
z179
z180
z181
z182
z183
z184
z185
z186
z187
z188
z189
z190
z191
z192
z193
z194
z195
z196
z197
z198
z199
z200
z201
z202
z203
z204
z205
z206
z207
z208
z209
z210
z211
z212
z213
z214
z215
z216
z217
z218
z219
z220
z221
z222
z223
z224
z225
z226
z227
z228
z229
z230
z231
z232
z233
z234
z235
z236
z237
z238
z239
z240
z241
z242
z243
z244
z245
z246
z247
z248
z249
z250
z251
z252
z253
z254
z255
z256
z257
z258
z259
z260
z261
z262
z263
z264
z265
z266
z267
z268
z269
z270
z271
z272
z273
z274
z275
z276
z277
z278
z279
z280
z281
z282
z283
z284
z285
z286
z287
z288
z289
z290
z291
z292
z293
z294
z295
z296
z297
z298
z299
z300
z301
z302
z303
z304
z305
z306
z307
z308
z309
z310
z311
z312
z313
z314
z315
z316
z317
z318
z319
z320
z321
z322
z323
z324
z325
z326
z327
z328
z329
z330
z331
z332
z333
z334
z335
z336
z337
z338
z339
z340
z341
z342
z343
z344
z345
z346
z347
z348
z349
z350
z351
z352
z353
z354
z355
z356
z357
z358
z359
z360
z361
z362
z363
z364
z365
z366
z367
z368
z369
z370
z371
z372
z373
z374
z375
z376
z377
z378
z379
z380
z381
z382
z383
z384
z385
z386
z387
z388
z389
z390
z391
z392
z393
z394
z395
z396
z397
z398
z399
z400
z401
z402
z403
z404
z405
z406
z407
z408
z409
z410
z411
z412
z413
z414
z415
z416
z417
z418
z419
z420
z421
z422
z423
z424
z425
z426
z427
z428
z429
z430
z431
z432
z433
z434
z435
z436
z437
z438
z439
z440
z441
z442
z443
z444
z445
z446
z447
z448
z449
z450
z451
z452
z453
z454
z455
z456
z457
z458
z459
z460
z461
z462
z463
z464
z465
z466
z467
z468
z469
z470
z471
z472
z473
z474
z475
z476
z477
z478
z479
z480
z481
z482
z483
z484
z485
z486
z487
z488
z489
z490
z491
z492
z493
z494
z495
z496
z497
z498
z499
z500
z501
z502
z503
z504
z505
z506
z507
z508
z509
z510
z511
z512
z513
z514
z515
z516
z517
z518
z519
z520
z521
z522
z523
z524
z525
z526
z527
z528
z529
z530
z531
z532
z533
z534
z535
z536
z537
z538
z539
z540
z541
z542
z543
z544
z545
z546
z547
z548
z549
z550
z551
z552
z553
z554
z555
z556
z557
z558
z559
z560
z561
z562
z563
z564
z565
z566
z567
z568
z569
z570
z571
z572
z573
z574
z575
z576
z577
z578
z579
z580
z581
z582
z583
z584
z585
z586
z587
z588
z589
z590
z591
z592
z593
z594
z595
z596
z597
z598
z599
z600
z601
z602
z603
z604
z605
z606
z607
z608
z609
z610
z611
z612
z613
z614
z615
z616
z617
z618
z619
z620
z621
z622
z623
z624
z625
z626
z627
z628
z629
z630
z631
z632
z633
z634
z635
z636
z637
z638
z639
z640
z641
z642
z643
z644
z645
z646
z647
z648
z649
z650
z651
z652
z653
z654
z655
z656
z657
z658
z659
z660
z661
z662
z663
z664
z665
z666
z667
z668
z669
z670
z671
z672
z673
z674
z675
z676
z677
z678
z679
z680
z681
z682
z683
z684
z685
z686
z687
z688
z689
z690
z691
z692
z693
z694
z695
z696
z697
z698
z699
z700
z701
z702
z703
z704
z705
z706
z707
z708
z709
z710
z711
z712
z713
z714
z715
z716
z717
z718
z719
z720
z721
z722
z723
z724
z725
z726
z727
z728
z729
z730
z731
z732
z733
z734
z735
z736
z737
z738
z739
z740
z741
z742
z743
z744
z745
z746
z747
z748
z749
z750
z751
z752
z753
z754
z755
z756
z757
z758
z759
z760
z761
z762
z763
z764
z765
z766
z767
z768
z769
z770
z771
z772
z773
z774
z775
z776
z777
z778
z779
z780
z781
z782
z783
z784
z785
z786
z787
z788
z789
z790
z791
z792
z793
z794
z795
z796
z797
z798
z799
z800
z801
z802
z803
z804
z805
z806
z807
z808
z809
z810
z811
z812
z813
z814
z815
z816
z817
z818
z819
z820
z821
z822
z823
z824
z825
z826
z827
z828
z829
z830
z831
z832
z833
z834
z835
z836
z837
z838
z839
z840
z841
z842
z843
z844
z845
z846
z847
z848
z849
z850
z851
z852
z853
z854
z855
z856
z857
z858
z859
z860
z861
z862
z863
z864
z865
z866
z867
z868
z869
z870
z871
z872
z873
z874
z875
z876
z877
z878
z879
z880
z881
z882
z883
z884
z885
z886
z887
z888
z889
z890
z891
z892
z893
z894
z895
z896
z897
z898
z899
z900
z901
z902
z903
z904
z905
z906
z907
z908
z909
z910
z911
z912
z913
z914
z915
z916
z917
z918
z919
z920
z921
z922
z923
z924
z925
z926
z927
z928
z929
z930
z931
z932
z933
z934
z935
z936
z937
z938
z939
z940
z941
z942
z943
z944
z945
z946
z947
z948
z949
z950
z951
z952
z953
z954
z955
z956
z957
z958
z959
z960
z961
z962
z963
z964
z965
z966
z967
z968
z969
z970
z971
z972
z973
z974
z975
z976
z977
z978
z979
z980
z981
z982
z983
z984
z985
z986
z987
z988
z989
z990
z991
z992
z993
z994
z995
z996
z997
z998
z999
z1000
END

